clingo version 5.4.0
Reading from merger/Niklas/merge.lp ...
Solving...
Answer: 1
occurs(object(robot,1),action(move,(-1,0)),3). occurs(object(robot,1),action(move,(-1,0)),4). occurs(object(robot,2),action(move,(-1,0)),1). occurs(object(robot,2),action(move,(-1,0)),2). occurs(object(robot,2),action(move,(-1,0)),3). occurs(object(robot,2),action(move,(-1,0)),4). occurs(object(robot,2),action(move,(0,0)),7). occurs(object(robot,2),action(move,(-1,0)),8). occurs(object(robot,2),action(move,(0,0)),9). occurs(object(robot,2),action(move,(0,0)),10). occurs(object(robot,2),action(move,(0,0)),11). occurs(object(robot,2),action(move,(0,0)),13). occurs(object(robot,2),action(move,(-1,0)),14). occurs(object(robot,1),action(move,(-1,0)),5). occurs(object(robot,1),action(move,(1,0)),6). occurs(object(robot,1),action(move,(-1,0)),7). occurs(object(robot,1),action(move,(0,0)),8). occurs(object(robot,1),action(move,(0,0)),9). occurs(object(robot,1),action(move,(1,0)),10). occurs(object(robot,1),action(move,(0,0)),11). occurs(object(robot,1),action(move,(0,0)),12). occurs(object(robot,1),action(move,(-1,0)),13). occurs(object(robot,1),action(move,(-1,0)),14). occurs(object(robot,2),action(move,(-1,0)),5). occurs(object(robot,1),action(move,(0,-1)),1). occurs(object(robot,1),action(move,(0,1)),2). occurs(object(robot,2),action(move,(0,0)),6). occurs(object(robot,2),action(move,(1,0)),12).
Optimization: 14
Answer: 2
occurs(object(robot,1),action(move,(-1,0)),3). occurs(object(robot,1),action(move,(-1,0)),4). occurs(object(robot,2),action(move,(-1,0)),1). occurs(object(robot,2),action(move,(-1,0)),2). occurs(object(robot,2),action(move,(-1,0)),3). occurs(object(robot,2),action(move,(-1,0)),4). occurs(object(robot,2),action(move,(-1,0)),7). occurs(object(robot,2),action(move,(0,0)),8). occurs(object(robot,2),action(move,(0,0)),9). occurs(object(robot,2),action(move,(0,0)),10). occurs(object(robot,2),action(move,(0,0)),11). occurs(object(robot,2),action(move,(-1,0)),13). occurs(object(robot,2),action(move,(0,0)),14). occurs(object(robot,1),action(move,(-1,0)),5). occurs(object(robot,1),action(move,(0,0)),6). occurs(object(robot,1),action(move,(-1,0)),7). occurs(object(robot,1),action(move,(0,0)),8). occurs(object(robot,1),action(move,(0,0)),9). occurs(object(robot,1),action(move,(1,0)),10). occurs(object(robot,1),action(move,(0,0)),11). occurs(object(robot,1),action(move,(0,0)),12). occurs(object(robot,1),action(move,(-1,0)),13). occurs(object(robot,1),action(move,(0,0)),14). occurs(object(robot,2),action(move,(-1,0)),5). occurs(object(robot,1),action(move,(0,-1)),1). occurs(object(robot,1),action(move,(0,1)),2). occurs(object(robot,2),action(move,(0,0)),6). occurs(object(robot,2),action(move,(1,0)),12).
Optimization: 13
Answer: 3
occurs(object(robot,1),action(move,(-1,0)),3). occurs(object(robot,2),action(move,(-1,0)),1). occurs(object(robot,2),action(move,(-1,0)),2). occurs(object(robot,2),action(move,(-1,0)),3). occurs(object(robot,2),action(move,(-1,0)),4). occurs(object(robot,2),action(move,(-1,0)),7). occurs(object(robot,2),action(move,(0,0)),8). occurs(object(robot,2),action(move,(0,0)),9). occurs(object(robot,2),action(move,(0,0)),10). occurs(object(robot,2),action(move,(0,0)),11). occurs(object(robot,2),action(move,(0,0)),12). occurs(object(robot,2),action(move,(0,0)),13). occurs(object(robot,2),action(move,(0,0)),14). occurs(object(robot,1),action(move,(-1,0)),5). occurs(object(robot,1),action(move,(-1,0)),6). occurs(object(robot,1),action(move,(-1,0)),7). occurs(object(robot,1),action(move,(0,0)),8). occurs(object(robot,1),action(move,(0,0)),9). occurs(object(robot,1),action(move,(0,0)),10). occurs(object(robot,1),action(move,(0,0)),11). occurs(object(robot,1),action(move,(0,0)),12). occurs(object(robot,1),action(move,(0,0)),13). occurs(object(robot,1),action(move,(0,0)),14). occurs(object(robot,2),action(move,(-1,0)),5). occurs(object(robot,1),action(move,(0,-1)),1). occurs(object(robot,1),action(move,(0,1)),2). occurs(object(robot,1),action(move,(0,0)),4). occurs(object(robot,2),action(move,(0,0)),6).
Optimization: 10
Answer: 4
occurs(object(robot,1),action(move,(-1,0)),1). occurs(object(robot,2),action(move,(-1,0)),1). occurs(object(robot,2),action(move,(-1,0)),3). occurs(object(robot,2),action(move,(-1,0)),4). occurs(object(robot,2),action(move,(-1,0)),6). occurs(object(robot,2),action(move,(-1,0)),7). occurs(object(robot,2),action(move,(-1,0)),8). occurs(object(robot,2),action(move,(0,0)),9). occurs(object(robot,2),action(move,(0,0)),10). occurs(object(robot,2),action(move,(0,0)),11). occurs(object(robot,2),action(move,(0,0)),12). occurs(object(robot,2),action(move,(0,0)),13). occurs(object(robot,2),action(move,(0,0)),14). occurs(object(robot,1),action(move,(-1,0)),6). occurs(object(robot,1),action(move,(-1,0)),7). occurs(object(robot,1),action(move,(0,0)),8). occurs(object(robot,1),action(move,(-1,0)),9). occurs(object(robot,1),action(move,(-1,0)),10). occurs(object(robot,1),action(move,(0,0)),11). occurs(object(robot,1),action(move,(0,0)),12). occurs(object(robot,1),action(move,(0,0)),13). occurs(object(robot,1),action(move,(0,0)),14). occurs(object(robot,2),action(move,(-1,0)),5). occurs(object(robot,2),action(move,(1,0)),2). occurs(object(robot,1),action(move,(1,0)),2). occurs(object(robot,1),action(move,(0,0)),4). occurs(object(robot,1),action(move,(0,-1)),3). occurs(object(robot,1),action(move,(0,1)),5).
Optimization: 9
Answer: 5
occurs(object(robot,1),action(move,(-1,0)),1). occurs(object(robot,1),action(move,(-1,0)),2). occurs(object(robot,2),action(move,(-1,0)),1). occurs(object(robot,2),action(move,(-1,0)),2). occurs(object(robot,2),action(move,(-1,0)),6). occurs(object(robot,2),action(move,(-1,0)),7). occurs(object(robot,2),action(move,(-1,0)),8). occurs(object(robot,2),action(move,(-1,0)),9). occurs(object(robot,2),action(move,(-1,0)),10). occurs(object(robot,2),action(move,(0,0)),11). occurs(object(robot,2),action(move,(0,0)),12). occurs(object(robot,2),action(move,(0,0)),13). occurs(object(robot,2),action(move,(0,0)),14). occurs(object(robot,1),action(move,(-1,0)),6). occurs(object(robot,1),action(move,(-1,0)),7). occurs(object(robot,1),action(move,(-1,0)),8). occurs(object(robot,1),action(move,(-1,0)),9). occurs(object(robot,1),action(move,(-1,0)),10). occurs(object(robot,1),action(move,(0,0)),11). occurs(object(robot,1),action(move,(0,0)),12). occurs(object(robot,1),action(move,(0,0)),13). occurs(object(robot,1),action(move,(0,0)),14). occurs(object(robot,2),action(move,(1,0)),3). occurs(object(robot,1),action(move,(1,0)),3). occurs(object(robot,1),action(move,(1,0)),4). occurs(object(robot,1),action(move,(1,0)),5). occurs(object(robot,2),action(move,(0,-1)),4). occurs(object(robot,2),action(move,(0,1)),5).
Optimization: 8
Answer: 6
occurs(object(robot,1),action(move,(-1,0)),3). occurs(object(robot,1),action(move,(-1,0)),4). occurs(object(robot,2),action(move,(-1,0)),1). occurs(object(robot,2),action(move,(-1,0)),2). occurs(object(robot,2),action(move,(-1,0)),3). occurs(object(robot,2),action(move,(-1,0)),4). occurs(object(robot,2),action(move,(-1,0)),6). occurs(object(robot,2),action(move,(0,0)),7). occurs(object(robot,2),action(move,(0,0)),8). occurs(object(robot,2),action(move,(0,0)),9). occurs(object(robot,2),action(move,(0,0)),10). occurs(object(robot,2),action(move,(0,0)),11). occurs(object(robot,2),action(move,(0,0)),12). occurs(object(robot,2),action(move,(0,0)),13). occurs(object(robot,2),action(move,(0,0)),14). occurs(object(robot,1),action(move,(-1,0)),5). occurs(object(robot,1),action(move,(0,0)),6). occurs(object(robot,1),action(move,(-1,0)),7). occurs(object(robot,1),action(move,(0,0)),8). occurs(object(robot,1),action(move,(0,0)),9). occurs(object(robot,1),action(move,(0,0)),10). occurs(object(robot,1),action(move,(0,0)),11). occurs(object(robot,1),action(move,(0,0)),12). occurs(object(robot,1),action(move,(0,0)),13). occurs(object(robot,1),action(move,(0,0)),14). occurs(object(robot,2),action(move,(-1,0)),5). occurs(object(robot,1),action(move,(0,-1)),1). occurs(object(robot,1),action(move,(0,1)),2).
Optimization: 7
Answer: 7
occurs(object(robot,1),action(move,(-1,0)),3). occurs(object(robot,1),action(move,(-1,0)),4). occurs(object(robot,2),action(move,(-1,0)),1). occurs(object(robot,2),action(move,(-1,0)),2). occurs(object(robot,2),action(move,(-1,0)),3). occurs(object(robot,2),action(move,(-1,0)),4). occurs(object(robot,2),action(move,(-1,0)),6). occurs(object(robot,2),action(move,(0,0)),7). occurs(object(robot,2),action(move,(0,0)),8). occurs(object(robot,2),action(move,(0,0)),9). occurs(object(robot,2),action(move,(0,0)),10). occurs(object(robot,2),action(move,(0,0)),11). occurs(object(robot,2),action(move,(0,0)),12). occurs(object(robot,2),action(move,(0,0)),13). occurs(object(robot,2),action(move,(0,0)),14). occurs(object(robot,1),action(move,(-1,0)),5). occurs(object(robot,1),action(move,(-1,0)),6). occurs(object(robot,1),action(move,(0,0)),7). occurs(object(robot,1),action(move,(0,0)),8). occurs(object(robot,1),action(move,(0,0)),9). occurs(object(robot,1),action(move,(0,0)),10). occurs(object(robot,1),action(move,(0,0)),11). occurs(object(robot,1),action(move,(0,0)),12). occurs(object(robot,1),action(move,(0,0)),13). occurs(object(robot,1),action(move,(0,0)),14). occurs(object(robot,2),action(move,(-1,0)),5). occurs(object(robot,1),action(move,(0,-1)),1). occurs(object(robot,1),action(move,(0,1)),2).
Optimization: 6
OPTIMUM FOUND

Models       : 7
  Optimum    : yes
Optimization : 6
Calls        : 1
Time         : 0.084s (Solving: 0.03s 1st Model: 0.00s Unsat: 0.01s)
CPU Time     : 0.072s
